282 5
10 10 10 10 10 

0 0 0 0 0 0 2 2 24 
0 0 0 0 0 0 5 3 4 6 7 8 
6 0 4 0 0 3 3 11 10 9 
10 0 4 0 0 7 2 12 5 
1 0 8 0 0 7 4 22 14 13 10 
8 0 6 0 0 8 4 22 15 14 12 
7 0 8 0 0 9 3 22 12 10 
9 0 8 0 0 10 5 22 20 15 14 13 
10 0 9 0 0 7 4 22 20 15 14 
5 0 7 0 0 7 4 20 19 16 15 
7 0 7 0 0 9 3 20 14 13 
8 0 10 0 0 9 2 20 13 
1 0 10 0 0 10 3 19 18 16 
2 0 10 0 0 10 3 19 18 16 
6 0 6 0 0 8 3 21 18 17 
1 0 10 0 0 9 1 17 
2 0 7 0 0 4 1 23 
4 0 8 0 0 6 2 23 44 
3 0 10 0 0 8 1 23 
7 0 6 0 0 6 1 23 
6 0 5 0 0 8 1 23 
9 0 7 0 0 5 1 23 
0 0 0 0 0 0 1 60 
0 0 0 0 0 0 4 25 26 28 29 
7 0 3 0 0 0 3 34 27 149 
7 0 8 0 0 0 4 33 32 31 30 
10 0 10 0 0 0 3 32 31 30 
5 0 7 0 0 0 3 34 33 30 
6 0 9 0 0 0 1 30 
5 0 6 0 0 0 1 35 
6 0 5 0 0 0 1 35 
6 0 8 0 0 0 1 35 
9 0 9 0 0 0 1 35 
4 0 10 0 0 0 1 35 
0 0 0 0 0 0 2 36 48 
0 0 0 0 0 0 3 37 38 39 
4 0 0 4 0 0 5 44 43 42 41 40 
9 0 0 10 0 0 4 44 42 41 40 
7 0 0 6 0 0 3 43 41 40 
1 0 0 7 0 0 2 46 45 
7 0 0 9 0 0 3 46 45 89 
8 0 0 10 0 0 2 46 45 
3 0 0 10 0 0 1 46 
3 0 0 8 0 0 1 45 
8 0 0 6 0 0 1 47 
7 0 0 5 0 0 1 47 
0 0 0 0 0 0 1 60 
0 0 0 0 0 0 5 49 50 51 52 54 
9 0 0 0 3 0 4 58 56 55 53 
4 0 0 0 10 0 3 57 56 55 
10 0 0 0 10 0 2 56 55 
7 0 0 0 5 0 2 56 55 
8 0 0 0 7 0 1 57 
2 0 0 0 9 0 1 55 
2 0 0 0 9 0 1 59 
10 0 0 0 6 0 1 59 
7 0 0 0 6 0 2 59 259 
4 0 0 0 10 0 1 59 
0 0 0 0 0 0 1 60 
0 0 0 0 0 0 5 61 73 85 97 109 
0 0 0 0 0 0 4 62 63 64 66 
7 0 0 0 0 4 4 71 70 69 67 
3 0 0 0 0 7 3 69 68 67 
5 0 0 0 0 5 1 65 
7 0 0 0 0 10 1 68 
8 0 0 0 0 10 1 67 
2 0 0 0 0 5 2 72 224 
5 0 0 0 0 4 1 72 
9 0 0 0 0 10 1 72 
5 0 0 0 0 10 1 72 
3 0 0 0 0 10 1 72 
0 0 0 0 0 0 1 121 
0 0 0 0 0 0 2 74 75 
7 0 0 3 0 0 3 78 77 76 
7 0 0 10 0 0 3 78 77 76 
5 0 0 7 0 0 4 83 82 80 79 
9 0 0 8 0 0 4 82 81 80 79 
7 0 0 7 0 0 3 81 80 79 
10 0 0 9 0 0 1 84 
3 0 0 10 0 0 2 84 133 
10 0 0 8 0 0 1 84 
9 0 0 8 0 0 1 84 
6 0 0 5 0 0 1 84 
0 0 0 0 0 0 1 121 
0 0 0 0 0 0 6 86 87 92 93 94 95 
5 0 3 0 0 0 3 91 90 88 
9 0 7 0 0 0 2 90 89 
10 0 9 0 0 0 1 89 
6 0 10 0 0 0 1 96 
3 0 10 0 0 0 1 96 
2 0 6 0 0 0 2 96 137 
10 0 7 0 0 0 1 96 
3 0 3 0 0 0 1 96 
5 0 10 0 0 0 1 96 
9 0 10 0 0 0 1 96 
0 0 0 0 0 0 1 121 
0 0 0 0 0 0 4 98 99 106 107 
1 0 0 0 0 5 4 105 104 103 100 
7 0 0 0 0 5 2 102 100 
1 0 0 0 0 8 1 101 
4 0 0 0 0 10 1 108 
8 0 0 0 0 9 1 108 
2 0 0 0 0 10 1 108 
6 0 0 0 0 8 2 108 252 
8 0 0 0 0 5 1 108 
7 0 0 0 0 8 1 108 
8 0 0 0 0 7 1 108 
0 0 0 0 0 0 1 121 
0 0 0 0 0 0 5 110 111 113 114 119 
4 2 0 0 0 0 3 118 115 112 
4 5 0 0 0 0 2 117 115 
10 10 0 0 0 0 1 116 
8 7 0 0 0 0 1 116 
10 10 0 0 0 0 1 115 
6 7 0 0 0 0 2 120 272 
8 10 0 0 0 0 1 120 
6 10 0 0 0 0 1 120 
7 6 0 0 0 0 1 120 
5 8 0 0 0 0 1 120 
0 0 0 0 0 0 1 121 
0 0 0 0 0 0 5 122 144 166 178 200 
0 0 0 0 0 0 9 123 126 129 130 138 139 140 141 142 
4 0 0 4 0 3 2 137 124 
3 0 0 8 0 5 3 136 135 125 
1 0 0 8 0 8 2 132 127 
3 0 0 9 0 7 1 128 
6 0 0 7 0 5 2 131 210 
4 0 0 8 0 10 1 134 
3 0 0 6 0 6 1 133 
10 0 0 6 0 7 1 133 
8 0 0 7 0 10 1 143 
7 0 0 10 0 7 1 143 
3 0 0 6 0 7 1 143 
6 0 0 8 0 6 1 143 
8 0 0 8 0 9 1 143 
4 0 0 5 0 7 1 143 
7 0 0 8 0 9 1 143 
6 0 0 8 0 9 1 143 
4 0 0 10 0 10 1 143 
4 0 0 10 0 9 1 143 
10 0 0 4 0 8 1 143 
7 0 0 10 0 8 1 143 
0 0 0 0 0 0 1 282 
0 0 0 0 0 0 17 145 150 151 152 153 154 155 156 157 158 159 160 161 162 163 164 274 
1 0 0 1 0 2 1 146 
4 0 0 5 0 5 1 147 
10 0 0 8 0 8 1 148 
3 0 0 3 0 6 1 149 
10 0 0 10 0 9 1 165 
2 0 0 9 0 8 1 165 
1 0 0 7 0 9 1 165 
2 0 0 7 0 8 1 165 
7 0 0 8 0 5 1 165 
2 0 0 6 0 10 1 165 
4 0 0 7 0 7 1 165 
2 0 0 9 0 10 1 165 
8 0 0 10 0 5 1 165 
6 0 0 10 0 10 1 165 
5 0 0 9 0 9 1 165 
1 0 0 10 0 7 1 165 
2 0 0 8 0 8 1 165 
3 0 0 7 0 9 1 165 
3 0 0 9 0 6 1 165 
3 0 0 7 0 9 1 165 
0 0 0 0 0 0 1 282 
0 0 0 0 0 0 5 167 168 170 173 176 
3 0 0 0 4 0 3 172 171 169 
6 0 0 0 9 0 2 171 169 
8 0 0 0 10 0 2 175 174 
8 0 0 0 7 0 2 171 262 
9 0 0 0 4 0 1 175 
5 0 0 0 8 0 1 174 
4 0 0 0 8 0 1 174 
6 0 0 0 9 0 1 177 
4 0 0 0 7 0 1 177 
4 0 0 0 9 0 1 177 
0 0 0 0 0 0 5 222 234 246 258 270 
0 0 0 0 0 0 9 179 180 182 183 184 185 190 197 198 
3 0 0 0 4 7 4 196 195 193 181 
10 0 0 0 7 10 5 195 194 189 188 187 
5 0 0 0 8 8 2 192 186 
3 0 0 0 10 4 3 193 192 191 
3 0 0 0 5 9 3 194 187 276 
3 0 0 0 7 10 2 192 187 
7 0 0 0 8 8 2 188 187 
2 0 0 0 8 5 1 187 
6 0 0 0 6 5 1 191 
3 0 0 0 6 10 1 191 
1 0 0 0 10 7 1 191 
3 0 0 0 10 4 1 193 
5 0 0 0 9 9 1 199 
1 0 0 0 5 9 1 199 
9 0 0 0 9 10 1 199 
10 0 0 0 10 4 1 199 
10 0 0 0 5 7 1 199 
1 0 0 0 4 10 1 199 
10 0 0 0 9 4 1 199 
2 0 0 0 10 10 1 199 
0 0 0 0 0 0 1 282 
0 0 0 0 0 0 7 201 202 204 205 206 219 220 
9 0 3 9 0 0 5 218 215 210 208 203 
5 0 5 5 0 0 6 217 215 214 211 210 208 
8 0 6 7 0 0 3 217 214 207 
4 0 9 8 0 0 4 217 215 214 208 
2 0 7 10 0 0 4 215 214 210 209 
5 0 8 10 0 0 4 215 214 213 208 
2 0 6 10 0 0 3 216 213 209 
1 0 7 5 0 0 1 209 
4 0 6 8 0 0 1 212 
2 0 9 5 0 0 1 213 
5 0 10 10 0 0 1 216 
5 0 8 4 0 0 1 221 
9 0 10 6 0 0 1 221 
8 0 10 5 0 0 1 221 
7 0 6 5 0 0 1 221 
3 0 4 10 0 0 1 221 
5 0 10 10 0 0 1 221 
2 0 8 7 0 0 1 221 
1 0 8 9 0 0 1 221 
2 0 10 7 0 0 1 221 
0 0 0 0 0 0 1 282 
0 0 0 0 0 0 4 223 224 225 232 
9 0 0 0 5 0 3 231 229 226 
8 0 0 0 9 0 3 229 228 227 
8 0 0 0 5 0 2 230 228 
6 0 0 0 4 0 1 227 
5 0 0 0 7 0 1 233 
8 0 0 0 5 0 1 233 
10 0 0 0 10 0 1 233 
5 0 0 0 10 0 1 233 
5 0 0 0 10 0 1 233 
1 0 0 0 10 0 1 233 
0 0 0 0 0 0 1 282 
0 0 0 0 0 0 5 235 236 238 239 240 
2 0 0 0 1 0 4 244 243 242 241 
9 0 0 0 9 0 2 243 237 
10 0 0 0 9 0 2 242 241 
2 0 0 0 10 0 2 244 242 
4 0 0 0 9 0 2 243 241 
10 0 0 0 9 0 2 242 241 
7 0 0 0 5 0 1 245 
4 0 0 0 6 0 1 245 
2 0 0 0 7 0 1 245 
10 0 0 0 10 0 1 245 
0 0 0 0 0 0 1 282 
0 0 0 0 0 0 3 247 248 251 
3 0 6 0 0 0 5 256 255 254 253 249 
9 0 5 0 0 0 3 254 250 249 
1 0 9 0 0 0 1 252 
4 0 8 0 0 0 1 253 
8 0 7 0 0 0 1 252 
3 0 5 0 0 0 1 257 
3 0 10 0 0 0 1 257 
10 0 7 0 0 0 1 257 
7 0 8 0 0 0 1 257 
9 0 10 0 0 0 1 257 
0 0 0 0 0 0 1 282 
0 0 0 0 0 0 4 259 260 267 268 
10 0 0 3 0 0 4 266 265 263 261 
9 0 0 3 0 0 3 264 263 261 
4 0 0 9 0 0 1 262 
7 0 0 7 0 0 1 269 
9 0 0 8 0 0 1 269 
1 0 0 7 0 0 1 269 
6 0 0 9 0 0 1 269 
5 0 0 9 0 0 1 269 
8 0 0 10 0 0 1 269 
2 0 0 10 0 0 1 269 
0 0 0 0 0 0 1 282 
0 0 0 0 0 0 5 271 272 273 275 280 
7 0 0 2 0 0 3 279 277 276 
4 0 0 8 0 0 2 277 276 
8 0 0 7 0 0 1 274 
6 0 0 8 0 0 1 278 
7 0 0 9 0 0 1 276 
2 0 0 6 0 0 1 281 
2 0 0 9 0 0 1 281 
1 0 0 7 0 0 1 281 
5 0 0 9 0 0 1 281 
8 0 0 10 0 0 1 281 
0 0 0 0 0 0 1 282 
0 0 0 0 0 0 0 
